228 300 242 216 172 189 13 168 25 57 228 250 64 40 192 115 274 230 41 278 43 201 247 98 94 37 41 271 281 200 12 205 280 254 120 151 142 184 70 166 293 298 167 56 89 58 222 114 287 14 91 81 267 38 178 112 126 271 134 107 170 146 11 201 99 182 51 292 118 121 209 110 170 75 165 258 132 138 71 171 203 214 251 169 3 181 280 128 151 114 234 72 259 296 273 109 230 75 100 47 247 8 156 116 82 72 125 265 261 248 135 163 161 138 32 163 70 63 290 272 176 276 43 186 23 67 294 252 194 93 50 140 152 257 8 233 80 132 250 40 131 136 255 291 273 286 205 94 48 247 65 276 222 160 213 296 278 259 300 171 51 49 63 255 58 70 239 137 253 188 229 84 24 183 126 296 220 31 90 19 29 206 46 2 65 259 297 43 217 296 265 19 97 27 273 206 96 212 94 101 99 74 184 174 256 61 170 227 143 11 246 171 268 43 224 33 1 221 127 269 268 143 288 116 170 12 73 17 275 167 